4 92 182 57 195 31 147 133 40 16 143 59 173 188 29 89 139 21 166 129 106 22 41 194 55 81 107 17 174 97 30 64 67 
84 199 127 88 155 118 105 69 176 113 191 134 58 144 71 87 137 123 115 121 11 13 8 1 60 75 175 
140 54 100 37 9 12 165 85 177 128 168 56 45 108 38 53 94 99 65 151 160 32 23 117 112 109 189 125 86 114 52 74 101 192 50 33 157 
142 48 131 156 15 179 102 152 24 169 167 68 7 18 196 183 190 61 98 119 161 72 187 130 150 79 73 93 193 19 146 83 148 36 
153 47 162 63 149 42 172 197 5 181 35 170 104 164 62 159 20 26 10 25 77 122 46 138 186 135 96 34 76 2 141 185 120 39 
163 28 6 49 14 200 103 124 43 180 132 78 171 136 3 184 27 51 198 111 110 90 44 95 145 91 80 116 178 126 70 158 66 82 154 
